benchmarks_vrp/CMT2/tsp_classic/CMT2_4.vrp
NAME: CMT2_4
TYPE: CVRP
COMMENT: 835.26 - Cluster Nr.4
DIMENSION: 8
CAPACITY: 140
EDGE_WEIGHT_TYPE: EUC_2D
NODE_COORD_TYPE: TWOD_COORDS
NODE_COORD_SECTION: 
7 35 60
4 45 42
2 35 51
3 29 39
5 33 44
8 30 50
1 41 46
6 40 40
DEPOT_SECTION: 
6
-1
DEMAND_SECTION: 
4 30
2 16
1 18
8 33
3 12
7 1
5 20
6 0
EOF
