benchmarks_vrp/CMT2/tsp_classic/CMT2_4.tour
NAME: CMT2_4 solution
TYPE: TOUR
TOUR_SECTION:
6 3 5 8 7 2 1 4 -1
-1
EOF